Bruniera/ragionamento automatico/progetto/benchmark/asp/easy2.lp
start(0).
limit(6).
n(10).
strada(0,4,2).
strada(0,7,16).
strada(0,9,2).
strada(1,0,11).
strada(1,5,16).
strada(1,9,5).
strada(2,0,13).
strada(2,8,20).
strada(3,0,13).
strada(3,1,8).
strada(3,4,14).
strada(3,5,9).
strada(3,7,1).
strada(3,9,19).
strada(4,0,7).
strada(4,2,20).
strada(4,5,11).
strada(4,9,6).
strada(5,2,16).
strada(5,4,3).
strada(5,6,19).
strada(5,9,15).
strada(6,1,11).
strada(6,3,17).
strada(6,5,8).
strada(6,8,6).
strada(6,9,8).
strada(7,0,19).
strada(7,3,19).
strada(7,4,14).
strada(7,5,18).
strada(7,6,15).
strada(8,3,7).
strada(8,4,2).
strada(8,6,13).
strada(8,9,18).
strada(9,1,16).
strada(9,3,6).
strada(9,4,7).
strada(9,6,0).
strada(9,7,20).
