Bruniera/ragionamento automatico/progetto/benchmark/minizinc/easy2.dzn
start = 1;
limit = 6;
n = 10;
m=[|-1,-1,-1,-1,2,-1,-1,16,-1,2,
|11,-1,-1,-1,-1,16,-1,-1,-1,5,
|13,-1,-1,-1,-1,-1,-1,-1,20,-1,
|13,8,-1,-1,14,9,-1,1,-1,19,
|7,-1,20,-1,-1,11,-1,-1,-1,6,
|-1,-1,16,-1,3,-1,19,-1,-1,15,
|-1,11,-1,17,-1,8,-1,-1,6,8,
|19,-1,-1,19,14,18,15,-1,-1,-1,
|-1,-1,-1,7,2,-1,13,-1,-1,18,
|-1,16,-1,6,7,-1,0,20,-1,-1,
|]
;